p tw 1349 1993
1 2
1 183
3 4
3 184
5 6
5 185
7 8
7 186
9 10
9 141
9 142
11 12
11 142
11 143
13 14
13 187
15 16
15 153
15 154
17 18
17 154
17 155
19 20
19 188
21 22
21 189
23 24
23 190
25 26
25 174
25 175
27 28
27 175
27 176
29 30
29 191
31 32
31 192
33 34
33 156
33 157
35 36
35 157
35 158
37 38
37 193
39 40
39 194
41 42
41 195
43 44
43 196
45 46
45 197
47 48
47 144
47 145
49 50
49 145
49 146
51 52
51 198
53 54
53 199
55 56
55 165
55 166
57 58
57 166
57 167
59 60
59 200
61 62
61 201
63 64
63 147
63 148
65 66
65 148
65 149
67 68
67 202
69 70
69 203
71 72
71 171
71 172
73 74
73 172
73 173
75 76
75 204
77 78
77 205
79 80
79 206
81 82
81 207
83 84
83 208
85 86
85 209
87 88
87 168
87 169
89 90
89 169
89 170
91 92
91 210
93 94
93 211
95 96
95 150
95 151
97 98
97 151
97 152
99 100
99 212
101 102
101 162
101 163
103 104
103 163
103 164
105 106
105 213
107 108
107 214
109 110
109 177
109 178
111 112
111 178
111 179
113 114
113 215
115 116
115 216
117 118
117 217
119 120
119 180
119 181
121 122
121 181
121 182
123 124
123 218
125 126
125 219
127 128
127 220
129 130
129 221
131 132
131 222
133 134
133 159
133 160
135 136
135 160
135 161
137 138
137 223
139 140
139 224
141 142
141 228
141 229
142 143
143 270
144 145
144 274
145 146
146 235
146 236
147 148
147 231
147 232
148 149
149 276
150 151
150 244
150 245
151 152
152 279
153 154
153 253
153 254
154 155
155 271
156 157
156 273
157 158
158 237
158 238
159 160
159 240
159 241
160 161
161 283
162 163
162 280
163 164
164 225
164 226
165 166
165 275
166 167
167 247
167 248
168 169
168 265
168 266
169 170
170 278
171 172
171 255
171 256
172 173
173 277
174 175
174 272
175 176
176 258
176 259
177 178
177 281
178 179
179 261
179 262
180 181
180 282
181 182
182 250
182 251
183 308
183 309
184 309
184 310
185 252
185 253
186 454
186 455
187 381
187 382
188 229
188 230
189 357
189 358
190 575
190 576
191 321
191 322
192 234
192 235
193 294
193 295
194 246
194 247
195 317
195 318
196 318
196 319
197 259
197 260
198 288
198 289
199 238
199 239
200 303
200 304
201 518
201 519
202 264
202 265
203 463
203 464
204 243
204 244
205 448
205 449
206 267
206 268
207 299
207 300
208 232
208 233
209 393
209 394
210 256
210 257
211 369
211 370
212 268
212 269
213 285
213 286
214 249
214 250
215 324
215 325
216 367
216 368
217 226
217 227
218 327
218 328
219 262
219 263
220 516
220 517
221 391
221 392
222 457
222 458
223 311
223 312
224 241
224 242
225 226
225 284
225 285
226 227
227 352
228 229
228 333
229 230
230 306
230 307
231 232
231 344
232 233
233 300
233 301
234 235
234 337
235 236
236 287
236 288
237 238
237 293
237 294
238 239
239 342
240 241
240 355
241 242
242 312
242 313
243 244
243 315
243 316
244 245
245 348
246 247
246 339
247 248
248 302
248 303
249 250
249 350
250 251
251 326
251 327
252 253
252 332
253 254
254 335
255 256
255 345
256 257
257 330
257 331
258 259
258 320
258 321
259 260
260 340
261 262
261 323
261 324
262 263
263 354
264 265
264 291
264 292
265 266
266 347
267 268
267 346
268 269
269 297
269 298
270 334
271 305
271 306
272 336
273 338
274 341
275 343
276 290
276 291
277 314
277 315
278 329
278 330
279 296
279 297
280 349
281 351
282 353
283 356
284 285
284 394
284 395
285 286
286 422
287 288
287 411
288 289
289 363
289 364
290 291
290 414
291 292
292 361
292 362
293 294
293 358
293 359
294 295
295 407
296 297
296 366
296 367
297 298
298 421
299 300
299 416
300 301
301 417
302 303
302 413
303 304
304 375
304 376
305 306
305 378
305 379
306 307
307 405
308 309
308 402
309 310
310 384
310 385
311 312
311 427
312 313
313 428
314 315
314 415
315 316
316 373
316 374
317 318
317 409
318 319
319 387
319 388
320 321
320 382
320 383
321 322
322 406
323 324
323 370
323 371
324 325
325 423
326 327
326 425
327 328
328 399
328 400
329 330
329 396
329 397
330 331
331 419
332 403
333 385
333 386
334 503
334 504
335 404
336 539
336 540
337 379
337 380
338 521
338 522
339 408
340 410
341 360
341 361
342 412
343 372
343 373
344 388
344 389
345 364
345 365
346 376
346 377
347 418
348 420
349 684
349 685
350 397
350 398
351 542
351 543
352 424
353 390
353 391
354 426
355 400
355 401
356 648
356 649
357 358
357 430
357 431
358 359
359 477
360 361
360 479
361 362
362 462
362 463
363 364
363 435
363 436
364 365
365 486
366 367
366 491
367 368
368 439
368 440
369 370
369 451
369 452
370 371
371 494
372 373
372 481
373 374
374 447
374 448
375 376
375 483
376 377
377 488
378 379
378 475
379 380
380 433
380 434
381 382
381 474
382 383
383 476
384 385
384 472
385 386
386 473
387 388
387 459
387 460
388 389
389 484
390 391
390 495
391 392
392 456
392 457
393 394
393 466
393 467
394 395
395 493
396 397
396 490
397 398
398 445
398 446
399 400
399 468
399 469
400 401
401 497
402 471
403 453
403 454
404 602
404 603
405 429
405 430
406 432
406 433
407 441
407 442
408 442
408 443
409 478
410 460
410 461
411 480
412 436
412 437
413 482
414 485
415 487
416 489
417 465
417 466
418 614
418 615
419 450
419 451
420 593
420 594
421 492
422 444
422 445
423 438
423 439
424 604
424 605
425 496
426 469
426 470
427 498
428 499
429 430
429 549
430 431
431 504
431 505
432 433
432 506
432 507
433 434
434 551
435 436
435 522
435 523
436 437
437 555
438 439
438 515
438 516
439 440
440 567
441 442
441 524
441 525
442 443
443 553
444 445
444 527
444 528
445 446
446 565
447 448
447 560
448 449
449 500
449 501
450 451
450 563
451 452
452 534
452 535
453 454
453 546
454 455
455 509
455 510
456 457
456 569
457 458
458 530
458 531
459 460
459 540
459 541
460 461
461 554
462 463
462 558
463 464
464 536
464 537
465 466
465 562
466 467
467 513
467 514
468 469
468 543
468 544
469 470
470 568
471 668
471 669
472 545
473 547
474 548
475 510
475 511
476 550
477 552
478 671
478 672
479 507
479 508
480 644
480 645
481 525
481 526
482 659
482 660
483 556
484 557
485 512
485 513
486 559
487 533
487 534
488 561
489 519
489 520
490 537
490 538
491 501
491 502
492 824
492 825
493 564
494 566
495 528
495 529
496 680
496 681
497 570
498 531
498 532
499 797
499 798
500 501
500 571
500 572
501 502
502 634
503 504
503 617
504 505
505 574
505 575
506 507
506 621
507 508
508 611
508 612
509 510
509 580
509 581
510 511
511 618
512 513
512 626
513 514
514 613
514 614
515 516
515 636
516 517
517 578
517 579
518 519
518 586
518 587
519 520
520 630
521 522
521 584
521 585
522 523
523 625
524 525
524 622
525 526
526 590
526 591
527 528
527 635
528 529
529 605
529 606
530 531
530 598
530 599
531 532
532 640
533 534
533 628
534 535
535 592
535 593
536 537
536 607
536 608
537 538
538 632
539 540
539 620
540 541
541 624
542 543
542 596
542 597
543 544
544 638
545 877
545 878
546 616
547 581
547 582
548 601
548 602
549 619
550 746
550 747
551 583
551 584
552 728
552 729
553 623
554 610
554 611
555 589
555 590
556 871
556 872
557 587
557 588
558 627
559 608
559 609
560 629
561 572
561 573
562 631
563 633
564 734
564 735
565 595
565 596
566 749
566 750
567 637
568 577
568 578
569 639
570 599
570 600
571 572
571 660
571 661
572 573
573 699
574 575
574 690
575 576
576 674
576 675
577 578
577 647
577 648
578 579
579 709
580 581
580 669
580 670
581 582
582 686
583 584
583 692
584 585
585 642
585 643
586 587
586 672
586 673
587 588
588 697
589 590
589 653
589 654
590 591
591 696
592 593
592 703
593 594
594 650
594 651
595 596
595 705
596 597
597 663
597 664
598 599
598 681
598 682
599 600
600 710
601 602
601 688
602 603
603 656
603 657
604 605
604 706
605 606
606 707
607 608
607 645
607 646
608 609
609 698
610 611
610 677
610 678
611 612
612 694
613 614
613 701
614 615
615 665
615 666
616 808
616 809
617 687
618 689
619 641
619 642
620 691
621 657
621 658
622 675
622 676
623 802
623 803
624 693
625 695
626 678
626 679
627 820
627 821
628 654
628 655
629 799
629 800
630 700
631 683
631 684
632 702
633 662
633 663
634 704
635 666
635 667
636 651
636 652
637 935
637 936
638 708
639 959
639 960
640 711
641 642
641 757
642 643
643 727
643 728
644 645
644 716
644 717
645 646
646 767
647 648
647 778
648 649
649 731
649 732
650 651
650 721
650 722
651 652
652 776
653 654
653 765
654 655
655 743
655 744
656 657
656 724
656 725
657 658
658 760
659 660
659 737
659 738
660 661
661 768
662 663
662 772
663 664
664 748
664 749
665 666
665 739
665 740
666 667
667 774
668 669
668 754
669 670
670 755
671 672
671 763
672 673
673 766
674 675
674 759
675 676
676 762
677 678
677 764
678 679
679 719
679 720
680 681
680 752
680 753
681 682
682 780
683 684
683 770
684 685
685 733
685 734
686 712
686 713
687 713
687 714
688 756
689 725
689 726
690 758
691 745
691 746
692 761
693 886
693 887
694 715
694 716
695 856
695 857
696 736
696 737
697 718
697 719
698 742
698 743
699 769
700 867
700 868
701 771
702 740
702 741
703 773
704 722
704 723
705 775
706 777
707 751
707 752
708 895
708 896
709 779
710 730
710 731
711 879
711 880
712 713
712 784
712 785
713 714
714 828
715 716
715 836
716 717
717 791
717 792
718 719
718 787
718 788
719 720
720 839
721 722
721 800
721 801
722 723
723 844
724 725
724 809
724 810
725 726
726 829
727 728
727 833
728 729
729 793
729 794
730 731
730 796
730 797
731 732
732 851
733 734
733 845
734 735
735 781
735 782
736 737
736 837
737 738
738 803
738 804
739 740
739 821
739 822
740 741
741 843
742 743
742 811
742 812
743 744
744 841
745 746
745 831
746 747
747 814
747 815
748 749
748 847
749 750
750 817
750 818
751 752
751 849
752 753
753 806
753 807
754 826
755 827
756 949
756 950
757 785
757 786
758 925
758 926
759 830
760 832
761 790
761 791
762 834
763 835
764 815
764 816
765 794
765 795
766 838
767 840
768 842
769 823
769 824
770 788
770 789
771 961
771 962
772 812
772 813
773 937
773 938
774 846
775 805
775 806
776 848
777 782
777 783
778 818
778 819
779 1084
779 1085
780 850
781 782
781 852
781 853
782 783
783 920
784 785
784 901
785 786
786 874
786 875
787 788
787 912
788 789
789 868
789 869
790 791
790 905
791 792
792 855
792 856
793 794
793 861
793 862
794 795
795 910
796 797
796 923
797 798
798 880
798 881
799 800
799 883
799 884
800 801
801 916
802 803
802 907
803 804
804 870
804 871
805 806
805 918
806 807
807 894
807 895
808 809
808 900
809 810
810 903
811 812
811 913
812 813
813 898
813 899
814 815
814 888
814 889
815 816
816 908
817 818
817 891
817 892
818 819
819 922
820 821
820 859
820 860
821 822
822 915
823 824
823 914
824 825
825 865
825 866
826 876
826 877
827 1022
827 1023
828 902
829 873
829 874
830 1143
830 1144
831 904
832 889
832 890
833 906
834 862
834 863
835 885
835 886
836 909
837 911
838 1086
838 1087
839 858
839 859
840 1031
840 1032
841 882
841 883
842 1016
842 1017
843 897
843 898
844 864
844 865
845 917
846 853
846 854
847 919
848 892
848 893
849 921
850 1025
850 1026
851 924
852 853
852 962
852 963
853 854
854 990
855 856
855 979
856 857
857 931
857 932
858 859
858 982
859 860
860 929
860 930
861 862
861 926
861 927
862 863
863 975
864 865
864 934
864 935
865 866
866 989
867 868
867 984
868 869
869 985
870 871
870 981
871 872
872 943
872 944
873 874
873 946
873 947
874 875
875 973
876 877
876 970
877 878
878 952
878 953
879 880
879 995
880 881
881 996
882 883
882 983
883 884
884 941
884 942
885 886
885 977
886 887
887 955
887 956
888 889
888 950
888 951
889 890
890 974
891 892
891 938
891 939
892 893
893 991
894 895
894 993
895 896
896 967
896 968
897 898
897 964
897 965
898 899
899 987
900 971
901 953
901 954
902 1071
902 1072
903 972
904 1107
904 1108
905 947
905 948
906 1089
906 1090
907 976
908 978
909 928
909 929
910 980
911 940
911 941
912 956
912 957
913 932
913 933
914 944
914 945
915 986
916 988
917 1252
917 1253
918 965
918 966
919 1110
919 1111
920 992
921 958
921 959
922 994
923 968
923 969
924 1216
924 1217
925 926
925 998
925 999
926 927
927 1045
928 929
928 1047
929 930
930 1030
930 1031
931 932
931 1003
931 1004
932 933
933 1054
934 935
934 1059
935 936
936 1007
936 1008
937 938
937 1019
937 1020
938 939
939 1062
940 941
940 1049
941 942
942 1015
942 1016
943 944
943 1051
944 945
945 1056
946 947
946 1043
947 948
948 1001
948 1002
949 950
949 1042
950 951
951 1044
952 953
952 1040
953 954
954 1041
955 956
955 1027
955 1028
956 957
957 1052
958 959
958 1063
959 960
960 1024
960 1025
961 962
961 1034
961 1035
962 963
963 1061
964 965
964 1058
965 966
966 1013
966 1014
967 968
967 1036
967 1037
968 969
969 1065
970 1039
971 1021
971 1022
972 1170
972 1171
973 997
973 998
974 1000
974 1001
975 1009
975 1010
976 1010
976 1011
977 1046
978 1028
978 1029
979 1048
980 1004
980 1005
981 1050
982 1053
983 1055
984 1057
985 1033
985 1034
986 1182
986 1183
987 1018
987 1019
988 1161
988 1162
989 1060
990 1012
990 1013
991 1006
991 1007
992 1172
992 1173
993 1064
994 1037
994 1038
995 1066
996 1067
997 998
997 1117
998 999
999 1072
999 1073
1000 1001
1000 1074
1000 1075
1001 1002
1002 1119
1003 1004
1003 1090
1003 1091
1004 1005
1005 1123
1006 1007
1006 1083
1006 1084
1007 1008
1008 1135
1009 1010
1009 1092
1009 1093
1010 1011
1011 1121
1012 1013
1012 1095
1012 1096
1013 1014
1014 1133
1015 1016
1015 1128
1016 1017
1017 1068
1017 1069
1018 1019
1018 1131
1019 1020
1020 1102
1020 1103
1021 1022
1021 1114
1022 1023
1023 1077
1023 1078
1024 1025
1024 1137
1025 1026
1026 1098
1026 1099
1027 1028
1027 1108
1027 1109
1028 1029
1029 1122
1030 1031
1030 1126
1031 1032
1032 1104
1032 1105
1033 1034
1033 1130
1034 1035
1035 1081
1035 1082
1036 1037
1036 1111
1036 1112
1037 1038
1038 1136
1039 1236
1039 1237
1040 1113
1041 1115
1042 1116
1043 1078
1043 1079
1044 1118
1045 1120
1046 1239
1046 1240
1047 1075
1047 1076
1048 1212
1048 1213
1049 1093
1049 1094
1050 1227
1050 1228
1051 1124
1052 1125
1053 1080
1053 1081
1054 1127
1055 1101
1055 1102
1056 1129
1057 1087
1057 1088
1058 1105
1058 1106
1059 1069
1059 1070
1060 1329
1061 1132
1062 1134
1063 1096
1063 1097
1064 1248
1064 1249
1065 1138
1066 1099
1066 1100
1067 1349
1068 1069
1068 1139
1068 1140
1069 1070
1070 1202
1071 1072
1071 1185
1072 1073
1073 1142
1073 1143
1074 1075
1074 1189
1075 1076
1076 1179
1076 1180
1077 1078
1077 1148
1077 1149
1078 1079
1079 1186
1080 1081
1080 1194
1081 1082
1082 1181
1082 1182
1083 1084
1083 1204
1084 1085
1085 1146
1085 1147
1086 1087
1086 1154
1086 1155
1087 1088
1088 1198
1089 1090
1089 1152
1089 1153
1090 1091
1091 1193
1092 1093
1092 1190
1093 1094
1094 1158
1094 1159
1095 1096
1095 1203
1096 1097
1097 1173
1097 1174
1098 1099
1098 1166
1098 1167
1099 1100
1100 1208
1101 1102
1101 1196
1102 1103
1103 1160
1103 1161
1104 1105
1104 1175
1104 1176
1105 1106
1106 1200
1107 1108
1107 1188
1108 1109
1109 1192
1110 1111
1110 1164
1110 1165
1111 1112
1112 1206
1113 1281
1114 1184
1115 1149
1115 1150
1116 1169
1116 1170
1117 1187
1118 1293
1119 1151
1119 1152
1120 1297
1121 1191
1122 1178
1122 1179
1123 1157
1123 1158
1124 1309
1125 1155
1125 1156
1126 1195
1127 1176
1127 1177
1128 1197
1129 1140
1129 1141
1130 1199
1131 1201
1132 1331
1133 1163
1133 1164
1134 1335
1135 1205
1136 1145
1136 1146
1137 1207
1138 1167
1138 1168
1139 1140
1139 1228
1139 1229
1140 1141
1141 1267
1142 1143
1142 1258
1143 1144
1144 1242
1144 1243
1145 1146
1145 1215
1145 1216
1146 1147
1147 1277
1148 1149
1148 1237
1148 1238
1149 1150
1150 1254
1151 1152
1151 1260
1152 1153
1153 1210
1153 1211
1154 1155
1154 1240
1154 1241
1155 1156
1156 1265
1157 1158
1157 1221
1157 1222
1158 1159
1159 1264
1160 1161
1160 1271
1161 1162
1162 1218
1162 1219
1163 1164
1163 1273
1164 1165
1165 1231
1165 1232
1166 1167
1166 1249
1166 1250
1167 1168
1168 1278
1169 1170
1169 1256
1170 1171
1171 1224
1171 1225
1172 1173
1172 1274
1173 1174
1174 1275
1175 1176
1175 1213
1175 1214
1176 1177
1177 1266
1178 1179
1178 1245
1178 1246
1179 1180
1180 1262
1181 1182
1181 1269
1182 1183
1183 1233
1183 1234
1184 1282
1185 1255
1186 1257
1187 1209
1187 1210
1188 1259
1189 1225
1189 1226
1190 1243
1190 1244
1191 1299
1192 1261
1193 1263
1194 1246
1194 1247
1195 1313
1196 1222
1196 1223
1197 1317
1198 1268
1199 1251
1199 1252
1200 1270
1201 1230
1201 1231
1202 1272
1203 1234
1203 1235
1204 1219
1204 1220
1205 1337
1206 1276
1207 1344
1208 1279
1209 1210
1209 1289
1210 1211
1211 1296
1212 1213
1212 1304
1213 1214
1214 1314
1215 1216
1215 1342
1216 1217
1217 1347
1218 1219
1218 1327
1219 1220
1220 1336
1221 1222
1221 1306
1222 1223
1223 1316
1224 1225
1224 1287
1225 1226
1226 1294
1227 1228
1227 1308
1228 1229
1229 1318
1230 1231
1230 1325
1231 1232
1232 1334
1233 1234
1233 1323
1234 1235
1235 1332
1236 1237
1236 1280
1237 1238
1238 1283
1239 1240
1239 1300
1240 1241
1241 1310
1242 1243
1242 1291
1243 1244
1244 1298
1245 1246
1245 1302
1246 1247
1247 1312
1248 1249
1248 1340
1249 1250
1250 1345
1251 1252
1251 1321
1252 1253
1253 1330
1254 1284
1255 1285
1256 1286
1257 1288
1258 1290
1259 1292
1260 1295
1261 1301
1262 1303
1263 1305
1264 1307
1265 1311
1266 1315
1267 1319
1268 1320
1269 1322
1270 1324
1271 1326
1272 1328
1273 1333
1274 1338
1275 1339
1276 1341
1277 1343
1278 1346
1279 1348
